num_servers = 11;
sid = [0, 1, 2, 3, 4, 5, 6, 7, 8, 9, 10];
scpu = [5, 5, 5, 5, 5, 5, 5, 5, 5, 10, 2];
sram = [9, 10, 14, 9, 19, 16, 6, 3, 6, 10, 4];

num_vms = 43;
vjob = [0, 0, 0, 0, 0, 0, 1, 2, 3, 3, 3, 4, 4, 5, 6, 6, 7, 8, 9, 10, 10, 11, 12, 13, 14, 14, 14, 14, 14, 14, 14, 15, 16, 17, 18, 19, 19, 20, 21, 22, 23, 24, 25];
vindex = [0, 1, 2, 3, 4, 5, 0, 0, 0, 1, 2, 0, 1, 0, 0, 1, 0, 0, 0, 0, 1, 0, 0, 0, 0, 1, 2, 3, 4, 5, 6, 0, 0, 0, 0, 0, 1, 0, 0, 0, 0, 0, 0];
vcpu = [1, 1, 1, 1, 1, 1, 1, 1, 1, 1, 1, 1, 1, 1, 1, 1, 1, 1, 1, 1, 1, 1, 1, 1, 1, 1, 1, 1, 1, 1, 1, 1, 1, 1, 1, 1, 1, 1, 1, 1, 1, 1, 1];
vram = [1, 1, 1, 1, 1, 1, 1, 1, 1, 1, 1, 1, 1, 1, 1, 1, 1, 1, 1, 1, 1, 1, 1, 1, 1, 1, 1, 1, 1, 1, 1, 1, 1, 1, 1, 1, 1, 1, 1, 1, 1, 1, 1];
vac = [true, true, true, true, true, true, true, true, true, true, true, true, true, true, true, true, true, true, true, true, true, true, true, true, true, true, true, true, true, true, true, true, true, true, true, true, true, true, true, true, true, true, true];
